NAME : ftv160.2763.tour
COMMENT : Cost = 0_2763
COMMENT : Found by LKH [Keld Helsgaun] Fri Jan 13 17:16:53 2017
TYPE : TOUR
DIMENSION : 165
TOUR_SECTION
1
113
133
112
111
110
108
107
106
98
97
100
99
96
95
93
92
155
91
90
89
154
88
71
70
68
67
64
65
66
57
58
63
62
69
86
87
94
109
84
85
72
73
79
83
80
81
163
3
162
2
164
4
5
6
134
135
132
116
117
118
119
120
121
122
123
124
102
101
103
104
105
115
114
128
127
126
125
147
146
145
144
153
143
150
149
148
138
137
130
129
131
136
139
140
141
142
7
8
9
10
11
77
75
76
12
13
14
18
22
30
23
33
159
37
158
34
32
31
29
28
27
24
25
26
151
161
152
15
16
160
17
19
20
21
38
39
40
41
157
35
36
156
42
43
45
46
47
48
49
52
53
54
44
56
55
59
60
61
51
50
74
78
165
82
-1
EOF
